WARNING: for repeatability, setting FPU to use double precision
============================[ Problem Statistics ]=============================
|                                                                             |
|  Number of variables:         64138                                         |
|  Number of clauses:          181071                                         |
|  Parse time:                   0.05 s                                       |
|                                                                             |
c ============================[ Search Statistics ]==============================
c | Conflicts |          ORIGINAL         |          LEARNT          | Progress |
c |           |    Vars  Clauses Literals |    Limit  Clauses Lit/Cl |          |
c ===============================================================================
c Switched to VSIDS.
c Switched to LRB.
c Switched to VSIDS.
c Switched to LRB.
c ===============================================================================
restarts                  : 560
conflicts                 : 62824          (900 /sec)
decisions                 : 5842178        (0.00 % random) (83711 /sec)
propagations              : 167376947      (2398296 /sec)
conflict literals         : 5727442        (42.04 % deleted)

conflicts w/ DIP found    : 52258          (83.18 % of conflicts)
conflicts w/ dangerous DIP: 0              (0.00 % of conflicts)
conflicts w/ DIP-learning : 43             (0.07 % of conflicts)
decisions on ext vars     : 432            (0.01 % of decisions)
total ext vars            : 7           
tried delete ext vars     : 5           
deleted ext vars          : 5           
max ext vars              : 5           

Memory used               : 71.00 MB
CPU time                  : 69.7899 s
DIP computation time      : 1.6428 s (2.35 % of total time)
ER_sel time               : 0.084801 s
ER_add time               : 8.7e-05 s
ER_delC time              : 0 s
ER_delV time              : 0.001318 s
ER_sub time               : 0.110389 s
ER_stat time              : 0 s

UNSATISFIABLE
